12 12 3

minsum minsum minsum

824 303 481 978 888 780 20 849 348 31 19 42
779 382 153 887 130 46 813 38 575 37 50 89
42 639 894 8 522 804 959 777 374 68 72 20

1 1 1 0 0 0 0 0 0 0 0 0
0 0 0 1 1 1 0 0 0 0 0 0
0 0 0 0 0 0 1 1 1 0 0 0
1 0 0 0 0 0 0 0 0 -1 0 0
0 1 0 0 0 0 0 0 0 0 -1 0
0 0 1 0 0 0 0 0 0 0 0 -1
0 0 0 1 0 0 0 0 0 -1 0 0
0 0 0 0 1 0 0 0 0 0 -1 0
0 0 0 0 0 1 0 0 0 0 0 -1
0 0 0 0 0 0 1 0 0 -1 0 0
0 0 0 0 0 0 0 1 0 0 -1 0
0 0 0 0 0 0 0 0 1 0 0 -1

2 1
2 1
2 1
1 0
1 0
1 0
1 0
1 0
1 0
1 0
1 0
1 0

0 0 0 0 0 0 0 0 0 0 0 0
1 1 1 1 1 1 1 1 1 1 1 1
